(set-logic ALL)
(declare-const content String)
(declare-const mimetype String)
(assert (not (< (str.len mimetype) 0)))
(assert (not (= (+ 0 (str.indexof mimetype "/" 0)) (- 1))))
(assert (not (< (+ 0 (str.indexof mimetype "/" 0)) 0)))
(assert (not (< (+ (+ 0 (str.indexof mimetype "/" 0)) 1) 0)))
(assert (not (< (str.len mimetype) 0)))
(assert (= (str.substr mimetype 0 (- (+ 0 (str.indexof mimetype "/" 0)) 0)) "text"))
(assert (not (< (str.len content) 0)))
(assert (not (= (+ 0 (str.indexof content "\n" 0)) (- 1))))
(assert (not (< (+ 0 (str.indexof content "\n" 0)) 0)))
(assert (not (< (+ (+ 0 (str.indexof content "\n" 0)) 1) 0)))
(assert (not (< (str.len content) 0)))
(assert (not (< (str.len (str.substr content (+ (+ 0 (str.indexof content "\n" 0)) 1) (- (str.len content) (+ (+ 0 (str.indexof content "\n" 0)) 1)))) 0)))
(assert (not (= (+ 0 (str.indexof (str.substr content (+ (+ 0 (str.indexof content "\n" 0)) 1) (- (str.len content) (+ (+ 0 (str.indexof content "\n" 0)) 1))) "\n" 0)) (- 1))))
(assert (not (< (+ 0 (str.indexof (str.substr content (+ (+ 0 (str.indexof content "\n" 0)) 1) (- (str.len content) (+ (+ 0 (str.indexof content "\n" 0)) 1))) "\n" 0)) 0)))
(assert (< (+ (+ 0 (str.indexof (str.substr content (+ (+ 0 (str.indexof content "\n" 0)) 1) (- (str.len content) (+ (+ 0 (str.indexof content "\n" 0)) 1))) "\n" 0)) 1) 0))
(check-sat)
(get-value (content))
(get-value (mimetype))
